p edge 50 626 10
v 10 3 5 19 21 22 24 32 34 43 46
v 3 4 29 45
v 5 1 12 13 38 47
v 7 2 6 7 16 20 30 48
v 7 10 11 15 23 25 39 44
v 3 35 36 41
v 3 14 18 28
v 5 9 26 31 33 37
v 2 27 42
v 5 8 17 40 49 50
e 1 2
e 1 3
e 1 4
e 1 6
e 1 7
e 1 12
e 1 13
e 1 14
e 1 15
e 1 16
e 1 18
e 1 19
e 1 22
e 1 23
e 1 25
e 1 26
e 1 30
e 1 31
e 1 32
e 1 33
e 1 34
e 1 35
e 1 37
e 1 40
e 1 42
e 1 45
e 1 48
e 2 5
e 2 7
e 2 9
e 2 10
e 2 11
e 2 14
e 2 15
e 2 18
e 2 20
e 2 21
e 2 22
e 2 23
e 2 25
e 2 26
e 2 27
e 2 28
e 2 30
e 2 31
e 2 34
e 2 36
e 2 38
e 2 39
e 2 43
e 2 48
e 3 4
e 3 6
e 3 8
e 3 11
e 3 14
e 3 17
e 3 18
e 3 19
e 3 20
e 3 21
e 3 25
e 3 28
e 3 31
e 3 32
e 3 33
e 3 34
e 3 35
e 3 38
e 3 41
e 3 45
e 3 47
e 3 48
e 3 49
e 3 50
e 4 5
e 4 6
e 4 9
e 4 11
e 4 12
e 4 14
e 4 15
e 4 18
e 4 19
e 4 21
e 4 25
e 4 27
e 4 29
e 4 32
e 4 34
e 4 38
e 4 39
e 4 40
e 4 41
e 4 43
e 4 47
e 4 48
e 4 50
e 5 6
e 5 7
e 5 8
e 5 9
e 5 12
e 5 13
e 5 14
e 5 15
e 5 16
e 5 19
e 5 20
e 5 21
e 5 25
e 5 26
e 5 30
e 5 31
e 5 32
e 5 34
e 5 35
e 5 36
e 5 37
e 5 38
e 5 39
e 5 40
e 5 43
e 5 44
e 5 45
e 5 46
e 5 47
e 5 48
e 5 49
e 5 50
e 6 12
e 6 13
e 6 14
e 6 15
e 6 16
e 6 22
e 6 25
e 6 26
e 6 27
e 6 29
e 6 32
e 6 33
e 6 36
e 6 38
e 6 41
e 6 42
e 6 43
e 6 45
e 6 47
e 6 50
e 7 8
e 7 10
e 7 11
e 7 15
e 7 17
e 7 19
e 7 20
e 7 21
e 7 22
e 7 24
e 7 26
e 7 29
e 7 30
e 7 31
e 7 34
e 7 35
e 7 37
e 7 38
e 7 39
e 7 41
e 7 43
e 7 44
e 7 46
e 7 49
e 7 50
e 8 10
e 8 11
e 8 13
e 8 15
e 8 16
e 8 18
e 8 19
e 8 20
e 8 21
e 8 22
e 8 23
e 8 24
e 8 25
e 8 26
e 8 27
e 8 31
e 8 34
e 8 35
e 8 36
e 8 40
e 8 41
e 8 42
e 8 44
e 8 45
e 8 46
e 8 47
e 8 48
e 8 49
e 9 10
e 9 11
e 9 12
e 9 15
e 9 18
e 9 19
e 9 20
e 9 21
e 9 26
e 9 28
e 9 29
e 9 30
e 9 31
e 9 36
e 9 37
e 9 40
e 9 41
e 9 42
e 9 44
e 9 45
e 10 11
e 10 12
e 10 14
e 10 18
e 10 21
e 10 22
e 10 24
e 10 25
e 10 27
e 10 28
e 10 32
e 10 33
e 10 34
e 10 40
e 10 41
e 10 44
e 10 45
e 10 46
e 10 48
e 10 49
e 10 50
e 11 13
e 11 14
e 11 15
e 11 16
e 11 18
e 11 19
e 11 21
e 11 22
e 11 25
e 11 26
e 11 28
e 11 31
e 11 34
e 11 35
e 11 36
e 11 39
e 11 40
e 11 42
e 11 43
e 11 44
e 11 46
e 11 49
e 12 13
e 12 15
e 12 19
e 12 20
e 12 22
e 12 24
e 12 25
e 12 27
e 12 29
e 12 30
e 12 31
e 12 32
e 12 38
e 12 45
e 12 46
e 13 16
e 13 17
e 13 18
e 13 24
e 13 27
e 13 33
e 13 34
e 13 35
e 13 36
e 13 37
e 13 39
e 13 41
e 13 43
e 13 45
e 13 46
e 13 48
e 13 49
e 14 15
e 14 16
e 14 17
e 14 18
e 14 20
e 14 21
e 14 22
e 14 25
e 14 26
e 14 28
e 14 29
e 14 33
e 14 35
e 14 36
e 14 37
e 14 39
e 14 41
e 14 42
e 14 46
e 14 49
e 14 50
e 15 17
e 15 19
e 15 22
e 15 23
e 15 24
e 15 25
e 15 26
e 15 27
e 15 28
e 15 29
e 15 31
e 15 32
e 15 33
e 15 34
e 15 36
e 15 39
e 15 46
e 15 48
e 15 49
e 16 17
e 16 18
e 16 20
e 16 23
e 16 24
e 16 25
e 16 27
e 16 30
e 16 31
e 16 38
e 16 39
e 16 40
e 16 42
e 16 45
e 16 47
e 16 49
e 17 22
e 17 28
e 17 33
e 17 34
e 17 37
e 17 39
e 17 41
e 17 42
e 17 43
e 17 44
e 17 45
e 17 47
e 18 19
e 18 23
e 18 24
e 18 26
e 18 27
e 18 29
e 18 30
e 18 31
e 18 32
e 18 36
e 18 38
e 18 42
e 18 44
e 18 46
e 18 47
e 18 48
e 19 22
e 19 23
e 19 24
e 19 26
e 19 27
e 19 28
e 19 31
e 19 33
e 19 35
e 19 37
e 19 39
e 19 41
e 19 45
e 19 46
e 19 49
e 19 50
e 20 21
e 20 22
e 20 26
e 20 27
e 20 33
e 20 35
e 20 36
e 20 37
e 20 42
e 20 46
e 20 47
e 20 49
e 21 23
e 21 24
e 21 25
e 21 27
e 21 29
e 21 32
e 21 35
e 21 36
e 21 37
e 21 40
e 21 41
e 21 44
e 21 45
e 21 49
e 21 50
e 22 23
e 22 24
e 22 25
e 22 28
e 22 29
e 22 31
e 22 33
e 22 36
e 22 37
e 22 38
e 22 42
e 22 47
e 22 48
e 22 50
e 23 24
e 23 26
e 23 28
e 23 29
e 23 30
e 23 31
e 23 33
e 23 34
e 23 35
e 23 36
e 23 38
e 23 39
e 23 40
e 23 41
e 23 47
e 23 48
e 23 49
e 24 25
e 24 26
e 24 27
e 24 28
e 24 29
e 24 30
e 24 31
e 24 32
e 24 33
e 24 34
e 24 35
e 24 42
e 24 45
e 24 49
e 25 27
e 25 29
e 25 30
e 25 31
e 25 33
e 25 34
e 25 35
e 25 36
e 25 40
e 25 44
e 25 46
e 25 49
e 26 27
e 26 30
e 26 33
e 26 34
e 26 35
e 26 36
e 26 37
e 26 40
e 26 46
e 27 30
e 27 33
e 27 35
e 27 37
e 27 39
e 27 43
e 27 45
e 27 48
e 27 50
e 28 30
e 28 32
e 28 34
e 28 35
e 28 37
e 28 40
e 28 44
e 28 46
e 28 47
e 29 32
e 29 33
e 29 34
e 29 35
e 29 36
e 29 38
e 29 39
e 29 40
e 29 44
e 29 47
e 29 48
e 29 49
e 29 50
e 30 31
e 30 33
e 30 34
e 30 38
e 30 39
e 30 41
e 30 42
e 30 45
e 30 48
e 30 50
e 31 34
e 31 35
e 31 36
e 31 37
e 31 38
e 31 39
e 31 42
e 31 46
e 31 47
e 31 48
e 31 50
e 32 33
e 32 35
e 32 37
e 32 38
e 32 41
e 32 42
e 32 43
e 32 48
e 32 49
e 33 34
e 33 36
e 33 37
e 33 38
e 33 39
e 33 44
e 33 46
e 33 48
e 34 37
e 34 38
e 34 39
e 34 40
e 34 42
e 34 45
e 34 46
e 34 47
e 34 48
e 34 50
e 35 40
e 35 42
e 35 44
e 35 45
e 35 46
e 35 47
e 35 49
e 36 40
e 36 41
e 36 42
e 36 44
e 36 46
e 36 47
e 36 48
e 36 49
e 37 40
e 37 41
e 37 42
e 37 44
e 37 46
e 37 48
e 37 50
e 38 42
e 38 45
e 38 48
e 38 50
e 39 40
e 39 42
e 39 43
e 39 44
e 39 47
e 40 41
e 40 42
e 40 46
e 40 47
e 40 49
e 40 50
e 41 43
e 41 45
e 41 47
e 41 48
e 42 45
e 42 47
e 42 49
e 43 48
e 43 50
e 44 46
e 44 47
e 45 47
e 45 49
e 45 50
e 46 49
e 46 50
e 47 49
e 48 49
e 49 50
